(set-logic ALL)
(declare-const z_random0_0 String)
(declare-const z_random0_1 String)
(declare-const z_random1_0 String)
(declare-const z_random1_1 String)
(declare-const z_random1_2 String)
(declare-fun seed0_x () String)
(declare-fun seed1_x () String)
(assert (and (and (not (= (str.in_re seed0_x (re.++ (re.* re.allchar ) re.allchar  (re.* re.allchar ) (str.to_re (str.substr z_random0_0 0 (str.indexof z_random0_0 (str.++ "C" "C") (str.len (str.++ "A" "B"))))) (re.* re.allchar ) (str.to_re (str.substr z_random1_2 0 (str.len (str.++ "C" "B")))) (re.* re.allchar ))) (str.in_re seed0_x (re.++ (re.* re.allchar ) re.allchar  (re.* re.allchar ) re.allchar  (re.* re.allchar ) (str.to_re (str.++ "A" (str.++ "B" (str.++ "C" "B")))) (re.* re.allchar ))))) (not (= (str.in_re (str.substr z_random1_0 0 (str.len seed0_x)) (re.++ (re.* re.allchar ) re.allchar  (re.* re.allchar ) (str.to_re (str.++ "B" (str.++ "A" (str.substr z_random0_1 0 (str.indexof z_random0_1 (str.++ "A" "C") (str.len (str.++ "B" "C"))))))) (re.* re.allchar ) re.allchar  (re.* re.allchar ))) (str.in_re (str.substr z_random1_1 0 (str.len seed0_x)) (re.++ (re.* re.allchar ) re.allchar  (re.* re.allchar ) (str.to_re (str.++ "B" (str.++ "A" "B"))) (re.* re.allchar ) (str.to_re "C") (re.* re.allchar )))))) (and (not (= (str.in_re seed1_x (re.++ (re.* re.allchar ) re.allchar  (re.* re.allchar ) (str.to_re (str.++ "C" "B")) (re.* re.allchar ) (str.to_re (str.substr z_random1_2 (str.indexof z_random1_2 (str.++ "A" "C") (str.len (str.++ "C" "B"))) (str.len (str.++ "A" "C")))) (re.* re.allchar ))) (str.in_re (str.substr z_random1_1 (str.indexof z_random1_1 seed1_x (str.len seed0_x)) (str.len seed1_x)) (re.++ (re.* re.allchar ) re.allchar  (re.* re.allchar ) (str.to_re "C") (re.* re.allchar ) (str.to_re (str.++ "B" (str.substr z_random1_0 (str.indexof z_random1_0 (str.++ "A" "C") (str.len seed0_x)) (str.len (str.++ "A" "C"))))) (re.* re.allchar ))))) (not (= (str.in_re seed1_x (re.++ (re.* re.allchar ) re.allchar  (re.* re.allchar ) (str.to_re (str.++ "A" (str.substr z_random0_0 (str.len (str.++ "A" "B")) (str.len (str.++ "C" "C"))))) (re.* re.allchar ) (str.to_re "B") (re.* re.allchar ))) (str.in_re seed1_x (re.++ (re.* re.allchar ) re.allchar  (re.* re.allchar ) re.allchar  (re.* re.allchar ) (str.to_re (str.++ "A" (str.++ "C" (str.++ "C" "B")))) (re.* re.allchar ))))))))
(check-sat)
(exit)